(set-option :print-success false)
(set-logic QF_UF)
(declare-sort x140 0)
(declare-sort x91 0)
(declare-fun x150 () x91)
(declare-fun x36 () x91)
(declare-fun x126 () x91)
(declare-fun x39 (x91 x91) x91)
(declare-fun x103 () x91)
(declare-fun x138 () x91)
(assert (not (and (and (and (= x36 (x39 x138 x126)) (= x103 (x39 x138 x138))) (= x150 (x39 x36 x103))) (= (x39 x103 x138) x126))))
(assert (not (and (= x150 (x39 x36 x138)) (and (and (= (x39 x138 x138) x36) (= x103 (x39 x138 x150))) (= x126 (x39 x103 x36))))))
(assert (let ((x4 (x39 x150 x138)) (x106 (x39 x103 x150)) (x18 (x39 x138 x150)) (x44 (x39 x103 x138)) (x148 (x39 x103 x126)) (x117 (x39 x36 x126)) (x120 (x39 x138 x126)) (x48 (x39 x150 x150)) (x139 (x39 x126 x36)) (x7 (x39 x150 x36)) (x133 (x39 x36 x103)) (x116 (x39 x150 x103)) (x145 (x39 x103 x103)) (x157 (x39 x126 x138)) (x17 (x39 x103 x36)) (x46 (x39 x126 x103)) (x131 (x39 x150 x126)) (x66 (x39 x36 x36)) (x67 (x39 x138 x36)) (x73 (x39 x138 x103)) (x50 (x39 x126 x150)) (x38 (x39 x36 x150)) (x82 (x39 x138 x138)) (x72 (x39 x36 x138)) (x21 (x39 x126 x126))) (and (and (and (and (and (and (and (and (or (or (or (= x66 x150) (or (= x66 x138) (= x66 x36))) (= x103 x66)) (= x66 x126)) (or (= x72 x126) (or (= x103 x72) (or (= x72 x150) (or (= x72 x36) (= x138 x72)))))) (or (or (or (= x38 x150) (or (= x38 x138) (= x36 x38))) (= x103 x38)) (= x126 x38))) (or (or (or (= x150 x133) (or (= x133 x36) (= x133 x138))) (= x133 x103)) (= x133 x126))) (or (= x117 x126) (or (or (= x150 x117) (or (= x138 x117) (= x36 x117))) (= x117 x103)))) (and (or (= x120 x126) (or (= x103 x120) (or (or (= x120 x138) (= x120 x36)) (= x150 x120)))) (and (and (or (or (= x103 x18) (or (= x150 x18) (or (= x18 x138) (= x36 x18)))) (= x126 x18)) (and (or (= x126 x82) (or (= x103 x82) (or (= x150 x82) (or (= x82 x36) (= x82 x138))))) (or (= x67 x126) (or (= x67 x103) (or (= x67 x150) (or (= x67 x36) (= x138 x67))))))) (or (or (= x103 x73) (or (= x150 x73) (or (= x138 x73) (= x36 x73)))) (= x73 x126))))) (and (or (or (or (= x150 x131) (or (= x36 x131) (= x131 x138))) (= x131 x103)) (= x126 x131)) (and (or (= x116 x126) (or (= x103 x116) (or (= x116 x150) (or (= x138 x116) (= x36 x116))))) (and (or (or (= x103 x48) (or (or (= x48 x138) (= x36 x48)) (= x48 x150))) (= x48 x126)) (and (or (or (or (or (= x4 x138) (= x4 x36)) (= x150 x4)) (= x4 x103)) (= x126 x4)) (or (= x126 x7) (or (or (= x7 x150) (or (= x138 x7) (= x7 x36))) (= x103 x7)))))))) (and (and (and (and (or (or (= x103 x44) (or (= x150 x44) (or (= x44 x36) (= x138 x44)))) (= x44 x126)) (or (or (= x103 x17) (or (= x17 x150) (or (= x17 x36) (= x17 x138)))) (= x126 x17))) (or (= x106 x126) (or (= x106 x103) (or (or (= x106 x138) (= x36 x106)) (= x150 x106))))) (or (= x145 x126) (or (or (or (= x145 x138) (= x145 x36)) (= x150 x145)) (= x145 x103)))) (or (= x148 x126) (or (or (= x150 x148) (or (= x148 x36) (= x138 x148))) (= x103 x148))))) (and (and (and (or (or (or (= x150 x50) (or (= x138 x50) (= x36 x50))) (= x103 x50)) (= x126 x50)) (and (or (or (= x103 x139) (or (= x139 x150) (or (= x139 x36) (= x139 x138)))) (= x126 x139)) (or (or (= x103 x157) (or (or (= x157 x36) (= x138 x157)) (= x150 x157))) (= x126 x157)))) (or (= x46 x126) (or (= x103 x46) (or (= x46 x150) (or (= x138 x46) (= x36 x46)))))) (or (= x21 x126) (or (or (or (= x138 x21) (= x21 x36)) (= x21 x150)) (= x103 x21)))))))
(assert (not (and (and (and (= x150 (x39 x36 x103)) (= (x39 x36 x36) x126)) (= (x39 x150 x126) x138)) (= x103 (x39 x126 x36)))))
(assert (not (and (= x103 (x39 x36 x138)) (and (= x150 (x39 x126 x36)) (and (= (x39 x138 x103) x126) (= (x39 x138 x138) x36))))))
(assert (not (and (and (and (= x150 (x39 x103 x103)) (= (x39 x103 x126) x36)) (= x138 (x39 x36 x150))) (= (x39 x150 x103) x126))))
(assert (not (and (= (x39 x36 x150) x103) (and (and (= x126 (x39 x150 x103)) (= x36 (x39 x150 x150))) (= (x39 x126 x36) x138)))))
(assert (not (and (= x36 (x39 x103 x150)) (and (= (x39 x126 x103) x138) (and (= (x39 x150 x36) x126) (= x103 (x39 x150 x150)))))))
(assert (not (and (and (and (= x103 (x39 x150 x126)) (= (x39 x150 x150) x36)) (= x138 (x39 x103 x36))) (= x126 (x39 x36 x150)))))
(assert (not (and (= (x39 x126 x103) x150) (and (= x138 (x39 x36 x126)) (and (= (x39 x103 x103) x126) (= (x39 x103 x150) x36))))))
(assert (not (and (= x138 (x39 x126 x36)) (and (= x103 (x39 x150 x126)) (and (= (x39 x36 x138) x150) (= (x39 x36 x36) x126))))))
(assert (not (and (= x138 (x39 x36 x150)) (and (and (= (x39 x150 x150) x36) (= (x39 x150 x138) x126)) (= (x39 x126 x36) x103)))))
(assert (not (and (and (= x150 (x39 x103 x138)) (and (= (x39 x126 x126) x138) (= x103 (x39 x126 x36)))) (= (x39 x138 x126) x36))))
(assert (not (and (= x126 (x39 x36 x103)) (and (= (x39 x150 x36) x138) (and (= x36 (x39 x103 x103)) (= x150 (x39 x103 x126)))))))
(assert (not (and (and (= x150 (x39 x138 x126)) (and (= x138 (x39 x36 x103)) (= x126 (x39 x36 x36)))) (= (x39 x126 x36) x103))))
(assert (not (and (and (= x150 (x39 x126 x36)) (and (= x36 (x39 x103 x103)) (= x126 (x39 x103 x138)))) (= x138 (x39 x36 x103)))))
(assert (not (and (= (x39 x126 x103) x150) (and (= x36 (x39 x138 x126)) (and (= (x39 x103 x103) x126) (= (x39 x103 x150) x138))))))
(assert (not (and (and (= x126 (x39 x138 x36)) (and (= (x39 x150 x103) x138) (= (x39 x150 x150) x36))) (= x103 (x39 x36 x150)))))
(assert (not (and (= (x39 x103 x138) x150) (and (and (= x103 (x39 x138 x138)) (= (x39 x138 x150) x36)) (= (x39 x36 x103) x126)))))
(assert (let ((x133 (x39 x103 x103)) (x117 (x39 x126 x126)) (x38 (x39 x150 x150)) (x72 (x39 x138 x138)) (x66 (x39 x36 x36))) (or (and (not (= x126 x117)) (and (not (= x133 x126)) (and (and (not (= x66 x126)) (not (= x126 x72))) (not (= x126 x38))))) (or (or (and (not (= x150 x117)) (and (and (and (not (= x150 x66)) (not (= x72 x150))) (not (= x150 x38))) (not (= x150 x133)))) (or (and (not (= x117 x138)) (and (and (not (= x38 x138)) (and (not (= x72 x138)) (not (= x138 x66)))) (not (= x133 x138)))) (and (and (and (not (= x36 x38)) (and (not (= x36 x66)) (not (= x72 x36)))) (not (= x133 x36))) (not (= x36 x117))))) (and (not (= x103 x117)) (and (not (= x133 x103)) (and (not (= x103 x38)) (and (not (= x66 x103)) (not (= x103 x72))))))))))
(assert (not (and (and (= (x39 x36 x126) x150) (and (= (x39 x103 x103) x126) (= x36 (x39 x103 x138)))) (= x138 (x39 x126 x103)))))
(assert (not (and (and (and (= (x39 x36 x103) x138) (= (x39 x36 x36) x150)) (= (x39 x138 x150) x126)) (= (x39 x150 x36) x103))))
(assert (not (and (= (x39 x103 x126) x36) (and (= (x39 x138 x103) x150) (and (= (x39 x126 x36) x138) (= (x39 x126 x126) x103))))))
(assert (not (and (= x126 (x39 x36 x103)) (and (= x150 (x39 x138 x36)) (and (= x138 (x39 x103 x126)) (= x36 (x39 x103 x103)))))))
(assert (not (and (= x36 (x39 x126 x150)) (and (= (x39 x103 x126) x138) (and (= (x39 x150 x150) x126) (= x103 (x39 x150 x36)))))))
(assert (not (and (= x36 (x39 x138 x103)) (and (= (x39 x126 x138) x150) (and (= x126 (x39 x103 x36)) (= x138 (x39 x103 x103)))))))
(assert (not (and (= (x39 x150 x36) x126) (and (= (x39 x138 x150) x103) (and (= x150 (x39 x36 x36)) (= x138 (x39 x36 x126)))))))
(assert (not (and (and (and (= x138 (x39 x126 x126)) (= x103 (x39 x126 x150))) (= (x39 x103 x138) x36)) (= x150 (x39 x138 x126)))))
(assert (and (and (and (and (or (or (= (x39 (x39 x103 x36) x36) x103) (or (= (x39 (x39 x150 x36) x36) x150) (or (= x36 (x39 (x39 x36 x36) x36)) (= (x39 (x39 x138 x36) x36) x138)))) (= x126 (x39 (x39 x126 x36) x36))) (or (or (or (= x150 (x39 (x39 x150 x138) x138)) (or (= (x39 (x39 x138 x138) x138) x138) (= x36 (x39 (x39 x36 x138) x138)))) (= (x39 (x39 x103 x138) x138) x103)) (= (x39 (x39 x126 x138) x138) x126))) (or (or (= x103 (x39 (x39 x103 x150) x150)) (or (= (x39 (x39 x150 x150) x150) x150) (or (= x138 (x39 (x39 x138 x150) x150)) (= x36 (x39 (x39 x36 x150) x150))))) (= (x39 (x39 x126 x150) x150) x126))) (or (= (x39 (x39 x126 x103) x103) x126) (or (or (= (x39 (x39 x150 x103) x103) x150) (or (= (x39 (x39 x138 x103) x103) x138) (= x36 (x39 (x39 x36 x103) x103)))) (= x103 (x39 (x39 x103 x103) x103))))) (or (or (or (= (x39 (x39 x150 x126) x126) x150) (or (= x138 (x39 (x39 x138 x126) x126)) (= x36 (x39 (x39 x36 x126) x126)))) (= x103 (x39 (x39 x103 x126) x126))) (= (x39 (x39 x126 x126) x126) x126))))
(assert (and (and (and (and (and (and (not (= x150 x138)) (and (and (not (= x36 x103)) (and (not (= x36 x150)) (not (= x138 x36)))) (not (= x126 x36)))) (not (= x138 x103))) (not (= x138 x126))) (not (= x103 x150))) (not (= x150 x126))) (not (= x126 x103))))
(assert (let ((x157 (x39 x138 x126)) (x60 (x39 x126 x138)) (x71 (x39 x126 x103)) (x26 (x39 x126 x126)) (x117 (x39 x36 x103)) (x67 (x39 x36 x126)) (x16 (x39 x150 x150)) (x73 (x39 x150 x36)) (x38 (x39 x36 x138)) (x148 (x39 x138 x150)) (x72 (x39 x36 x36)) (x139 (x39 x138 x103)) (x133 (x39 x36 x150)) (x120 (x39 x103 x36)) (x129 (x39 x103 x103)) (x10 (x39 x103 x126)) (x24 (x39 x103 x150)) (x87 (x39 x126 x150)) (x63 (x39 x150 x126)) (x18 (x39 x138 x36)) (x7 (x39 x126 x36)) (x130 (x39 x103 x138)) (x145 (x39 x138 x138)) (x29 (x39 x150 x103)) (x21 (x39 x150 x138))) (let ((x23 (= x103 x145)) (x20 (= x126 x29)) (x94 (= x103 x16)) (x13 (= x126 x38)) (x17 (= x38 x36)) (x52 (= x7 x126)) (x79 (= x157 x150)) (x53 (= x36 x148)) (x102 (= x73 x150)) (x119 (= x130 x36)) (x101 (= x157 x103)) (x147 (= x138 x26)) (x42 (= x36 x10)) (x80 (= x63 x150)) (x88 (= x120 x138)) (x5 (= x103 x148)) (x47 (= x103 x29)) (x141 (= x103 x87)) (x104 (= x126 x129)) (x111 (= x150 x10)) (x110 (= x138 x129)) (x64 (= x138 x16)) (x89 (= x126 x139)) (x118 (= x103 x63)) (x132 (= x148 x138)) (x30 (= x29 x138)) (x84 (= x138 x71)) (x70 (= x138 x157)) (x155 (= x139 x150)) (x46 (= x145 x138)) (x95 (= x117 x36)) (x59 (= x63 x36)) (x93 (= x150 x145)) (x6 (= x139 x103)) (x142 (= x130 x103)) (x14 (= x67 x103)) (x135 (= x21 x126)) (x35 (= x36 x24)) (x137 (= x133 x36)) (x69 (= x138 x87)) (x32 (= x29 x36)) (x74 (= x10 x138)) (x66 (= x36 x72)) (x19 (= x60 x138)) (x100 (= x10 x126)) (x156 (= x67 x138)) (x97 (= x36 x26)) (x115 (= x36 x73)) (x56 (= x103 x21)) (x112 (= x60 x126)) (x92 (= x148 x126)) (x124 (= x138 x63)) (x45 (= x150 x133)) (x12 (= x16 x126)) (x65 (= x150 x24)) (x146 (= x129 x150)) (x153 (= x103 x129)) (x131 (= x18 x36)) (x151 (= x103 x117)) (x149 (= x29 x150)) (x44 (= x145 x36)) (x86 (= x87 x36)) (x77 (= x148 x150)) (x28 (= x7 x138)) (x90 (= x21 x36)) (x57 (= x38 x150)) (x62 (= x36 x129)) (x123 (= x130 x150)) (x4 (= x72 x150)) (x105 (= x157 x126)) (x99 (= x133 x126)) (x143 (= x103 x26)) (x48 (= x103 x72)) (x8 (= x117 x150)) (x121 (= x36 x7)) (x154 (= x120 x103)) (x128 (= x150 x60)) (x11 (= x71 x36)) (x50 (= x138 x38)) (x152 (= x36 x139)) (x96 (= x130 x138)) (x37 (= x103 x24)) (x58 (= x150 x18)) (x27 (= x150 x120)) (x78 (= x60 x103)) (x127 (= x24 x126)) (x116 (= x126 x72)) (x107 (= x36 x60)) (x40 (= x126 x120)) (x76 (= x71 x150)) (x75 (= x126 x63)) (x114 (= x103 x7)) (x113 (= x138 x21)) (x55 (= x150 x67)) (x134 (= x73 x138)) (x3 (= x16 x36)) (x15 (= x67 x126)) (x34 (= x133 x138)) (x125 (= x73 x103)) (x82 (= x138 x72)) (x68 (= x157 x36)) (x83 (= x133 x103)) (x61 (= x126 x18)) (x22 (= x36 x67)) (x2 (= x16 x150)) (x85 (= x126 x130)) (x9 (= x138 x24)) (x51 (= x117 x138)) (x122 (= x71 x103)) (x136 (= x126 x26)) (x81 (= x126 x71)) (x158 (= x26 x150)) (x33 (= x103 x18)) (x31 (= x150 x7)) (x41 (= x150 x87)) (x1 (= x103 x10)) (x106 (= x138 x18)) (x109 (= x21 x150)) (x49 (= x145 x126)) (x98 (= x126 x87)) (x25 (= x73 x126)) (x108 (= x36 x120)) (x54 (= x117 x126)) (x43 (= x139 x138)) (x144 (= x38 x103))) (and (and (and (and (and (and (and (or (or (or x125 (or x33 x48)) x154) x114) (or (or (or x83 (or x144 x48)) x151) x14)) (and (and (or (or x8 (or (or x57 x4) x45)) x55) (or (or x27 (or (or x4 x58) x102)) x31)) (and (and (or x156 (or x51 (or (or x82 x50) x34))) (or (or (or (or x82 x106) x134) x88) x28)) (and (or (or x108 (or x115 (or x131 x66))) x121) (or (or x95 (or (or x17 x66) x137)) x22))))) (and (or (or (or x99 (or x116 x13)) x54) x15) (or (or x40 (or (or x61 x116) x25)) x52))) (and (and (or (or x89 (or x92 (or x49 x61))) x105) (or (or (or (or x13 x49) x135) x85) x112)) (and (and (and (or (or x123 (or (or x93 x57) x109)) x128) (or (or (or (or x93 x58) x77) x155) x79)) (and (and (or (or (or x90 (or x17 x44)) x119) x107) (or (or (or x53 (or x131 x44)) x152) x68)) (and (or x70 (or x43 (or x132 (or x46 x106)))) (or x19 (or (or x113 (or x46 x50)) x96))))) (and (or x101 (or x6 (or (or x33 x23) x5))) (or x78 (or (or (or x23 x144) x56) x142)))))) (and (and (or (or (or x12 (or x92 x99)) x127) x98) (or (or x20 (or (or x135 x25) x12)) x75)) (and (and (and (and (or (or x9 (or (or x34 x132) x64)) x69) (or (or (or x64 (or x134 x113)) x30) x124)) (and (or x86 (or (or (or x137 x53) x3) x35)) (or (or (or (or x90 x115) x3) x32) x59))) (and (or x80 (or (or (or x109 x102) x2) x149)) (or (or x65 (or (or x45 x77) x2)) x41))) (and (or (or (or (or x83 x5) x94) x37) x141) (or (or (or x94 (or x125 x56)) x47) x118))))) (and (and (or (or (or x127 (or x85 x40)) x104) x100) (or x81 (or x104 (or (or x54 x89) x20)))) (and (and (and (or x111 (or x146 (or x65 (or x123 x27)))) (or (or (or x149 (or x8 x155)) x146) x76)) (and (and (or x74 (or x110 (or (or x88 x96) x9))) (or (or x110 (or x30 (or x43 x51))) x84)) (and (or x42 (or x62 (or x35 (or x108 x119)))) (or x11 (or (or x32 (or x95 x152)) x62))))) (and (or (or (or x37 (or x142 x154)) x153) x1) (or x122 (or x153 (or x47 (or x151 x6)))))))) (and (and (or x136 (or (or (or x105 x15) x75) x100)) (or x136 (or x81 (or (or x52 x112) x98)))) (and (and (or (or (or (or x114 x78) x141) x122) x143) (or x143 (or x1 (or (or x14 x101) x118)))) (and (and (or x158 (or (or (or x79 x55) x80) x111)) (or (or (or (or x128 x31) x41) x76) x158)) (and (and (or x97 (or (or (or x22 x68) x59) x42)) (or x97 (or (or x86 (or x107 x121)) x11))) (and (or (or (or (or x70 x156) x124) x74) x147) (or (or x84 (or x69 (or x28 x19))) x147))))))))))
(assert (not (and (= x150 (x39 x138 x103)) (and (= x36 (x39 x126 x138)) (and (= (x39 x103 x150) x126) (= (x39 x103 x103) x138))))))
(assert (not (and (= x103 (x39 x126 x150)) (and (and (= (x39 x150 x103) x138) (= (x39 x150 x150) x126)) (= x36 (x39 x138 x126))))))
(assert (not (and (and (and (= x126 (x39 x103 x103)) (= (x39 x103 x36) x138)) (= (x39 x138 x126) x150)) (= (x39 x126 x103) x36))))
(assert (not (and (and (and (= x138 (x39 x36 x36)) (= x150 (x39 x36 x126))) (= x103 (x39 x150 x138))) (= x126 (x39 x138 x36)))))
(assert (let ((x90 (x39 x138 x138)) (x113 (x39 x103 x138)) (x109 (x39 x103 x150)) (x58 (x39 x36 x138)) (x130 (x39 x36 x36)) (x92 (x39 x126 x103)) (x33 (x39 x150 x36)) (x134 (x39 x138 x103)) (x102 (x39 x150 x103)) (x13 (x39 x126 x36)) (x45 (x39 x150 x126)) (x16 (x39 x138 x126)) (x77 (x39 x126 x150)) (x24 (x39 x150 x150)) (x88 (x39 x126 x126)) (x99 (x39 x103 x126)) (x93 (x39 x36 x150)) (x53 (x39 x138 x150)) (x25 (x39 x103 x103)) (x3 (x39 x150 x138)) (x144 (x39 x36 x103)) (x57 (x39 x138 x36)) (x29 (x39 x126 x138)) (x61 (x39 x36 x126)) (x23 (x39 x103 x36))) (let ((x117 (not (= x36 x33))) (x48 (not (= x36 x134))) (x52 (not (= x13 x126))) (x64 (not (= x138 x53))) (x49 (not (= x57 x138))) (x47 (not (= x150 x77))) (x72 (not (= x57 x36))) (x50 (not (= x36 x92))) (x116 (not (= x109 x36))) (x59 (not (= x144 x103))) (x137 (not (= x90 x138))) (x127 (not (= x150 x88))) (x124 (not (= x77 x103))) (x108 (not (= x138 x61))) (x139 (not (= x77 x36))) (x94 (not (= x102 x138))) (x2 (not (= x138 x23))) (x157 (not (= x45 x36))) (x71 (not (= x53 x150))) (x60 (not (= x138 x130))) (x37 (not (= x150 x61))) (x149 (not (= x150 x109))) (x107 (not (= x93 x103))) (x104 (not (= x90 x103))) (x75 (not (= x92 x126))) (x4 (not (= x113 x36))) (x135 (not (= x138 x25))) (x43 (not (= x33 x150))) (x27 (not (= x24 x150))) (x28 (not (= x109 x103))) (x41 (not (= x130 x126))) (x18 (not (= x53 x36))) (x66 (not (= x130 x36))) (x44 (not (= x36 x13))) (x8 (not (= x113 x150))) (x6 (not (= x150 x16))) (x153 (not (= x150 x45))) (x5 (not (= x138 x109))) (x9 (not (= x130 x150))) (x79 (not (= x90 x126))) (x129 (not (= x57 x150))) (x54 (not (= x130 x103))) (x7 (not (= x36 x144))) (x65 (not (= x144 x150))) (x156 (not (= x103 x29))) (x141 (not (= x23 x126))) (x73 (not (= x24 x36))) (x70 (not (= x103 x16))) (x119 (not (= x29 x138))) (x96 (not (= x88 x138))) (x10 (not (= x150 x58))) (x31 (not (= x99 x103))) (x112 (not (= x61 x126))) (x11 (not (= x53 x103))) (x21 (not (= x36 x88))) (x85 (not (= x99 x150))) (x111 (not (= x93 x126))) (x154 (not (= x150 x25))) (x56 (not (= x113 x138))) (x110 (not (= x150 x3))) (x12 (not (= x138 x13))) (x83 (not (= x138 x134))) (x86 (not (= x103 x3))) (x76 (not (= x126 x57))) (x142 (not (= x150 x13))) (x132 (not (= x3 x138))) (x145 (not (= x36 x29))) (x122 (not (= x144 x126))) (x17 (not (= x36 x25))) (x51 (not (= x150 x90))) (x81 (not (= x126 x16))) (x22 (not (= x103 x24))) (x114 (not (= x126 x53))) (x158 (not (= x3 x126))) (x14 (not (= x113 x126))) (x136 (not (= x126 x88))) (x55 (not (= x126 x58))) (x128 (not (= x103 x88))) (x67 (not (= x93 x36))) (x147 (not (= x103 x92))) (x68 (not (= x23 x103))) (x19 (not (= x103 x102))) (x98 (not (= x29 x126))) (x40 (not (= x92 x150))) (x80 (not (= x126 x33))) (x84 (not (= x13 x103))) (x152 (not (= x138 x45))) (x97 (not (= x134 x103))) (x105 (not (= x45 x126))) (x87 (not (= x138 x24))) (x20 (not (= x103 x58))) (x35 (not (= x138 x16))) (x106 (not (= x36 x61))) (x30 (not (= x93 x150))) (x151 (not (= x150 x29))) (x34 (not (= x93 x138))) (x125 (not (= x144 x138))) (x69 (not (= x25 x103))) (x15 (not (= x126 x77))) (x131 (not (= x102 x36))) (x32 (not (= x92 x138))) (x146 (not (= x150 x102))) (x63 (not (= x33 x138))) (x123 (not (= x150 x23))) (x118 (not (= x109 x126))) (x26 (not (= x61 x103))) (x120 (not (= x36 x23))) (x46 (not (= x36 x99))) (x42 (not (= x103 x113))) (x78 (not (= x126 x24))) (x95 (not (= x138 x77))) (x101 (not (= x134 x126))) (x148 (not (= x36 x16))) (x115 (not (= x138 x58))) (x155 (not (= x134 x150))) (x38 (not (= x36 x58))) (x74 (not (= x45 x103))) (x62 (not (= x138 x99))) (x82 (not (= x36 x3))) (x133 (not (= x36 x90))) (x143 (not (= x126 x25))) (x100 (not (= x99 x126))) (x121 (not (= x103 x33))) (x1 (not (= x102 x126))) (x89 (not (= x103 x57)))) (or (and (and (and (or x75 x100) (and (or x15 x105) (and (or x52 x112) (or x81 x98)))) (or x136 x136)) (and (and (and (and (or x1 x118) (and (and (or x80 x111) (or x158 x114)) (or x78 x78))) (or x15 x105)) (and (and (or x52 x112) (and (and (and (or x41 x41) (or x55 x76)) (or x80 x111)) (or x141 x122))) (and (or x81 x98) (and (or x101 x14) (and (and (or x76 x55) (or x79 x79)) (or x114 x158)))))) (and (or x75 x100) (and (or x143 x143) (and (and (or x101 x14) (or x122 x141)) (or x118 x1)))))) (or (or (or (and (and (and (or x46 x50) (and (and (or x116 x131) (and (or x4 x48) (or x7 x120))) (or x17 x17))) (and (and (and (or x106 x44) (and (and (and (or x66 x66) (or x72 x38)) (or x117 x67)) (or x120 x7))) (and (and (and (or x82 x18) (and (or x133 x133) (or x38 x72))) (or x48 x4)) (or x145 x148))) (and (and (or x116 x131) (and (and (or x82 x18) (or x117 x67)) (or x73 x73))) (or x157 x139)))) (and (or x21 x21) (and (and (or x157 x139) (and (or x44 x106) (or x145 x148))) (or x46 x50)))) (and (and (and (and (and (and (or x2 x125) (and (and (or x60 x60) (or x49 x115)) (or x34 x63))) (or x108 x12)) (and (and (and (and (or x137 x137) (or x115 x49)) (or x132 x64)) (or x83 x56)) (or x119 x35))) (and (or x95 x152) (and (and (or x87 x87) (and (or x63 x34) (or x132 x64))) (or x5 x94)))) (and (or x62 x32) (and (and (or x5 x94) (and (or x83 x56) (or x2 x125))) (or x135 x135)))) (and (or x96 x96) (and (and (or x95 x152) (and (or x119 x35) (or x12 x108))) (or x62 x32))))) (and (and (and (or x40 x85) (and (or x153 x47) (and (or x37 x142) (or x151 x6)))) (or x127 x127)) (and (and (and (or x153 x47) (and (and (and (or x71 x110) (or x43 x30)) (or x27 x27)) (or x146 x149))) (and (and (or x142 x37) (and (and (or x30 x43) (and (or x129 x10) (or x9 x9))) (or x65 x123))) (and (or x6 x151) (and (or x155 x8) (and (and (or x51 x51) (or x129 x10)) (or x71 x110)))))) (and (or x40 x85) (and (and (and (or x65 x123) (or x155 x8)) (or x149 x146)) (or x154 x154)))))) (and (and (and (or x147 x31) (and (or x69 x69) (and (or x19 x28) (and (or x97 x42) (or x59 x68))))) (and (and (and (and (or x42 x97) (and (and (or x89 x20) (or x104 x104)) (or x11 x86))) (or x70 x156)) (and (and (or x68 x59) (and (and (or x20 x89) (or x54 x54)) (or x121 x107))) (or x84 x26))) (and (or x124 x74) (and (or x28 x19) (and (or x22 x22) (and (or x107 x121) (or x86 x11))))))) (and (and (and (or x74 x124) (and (or x70 x156) (or x26 x84))) (or x31 x147)) (or x128 x128))))))))
(assert (not (and (= (x39 x150 x138) x126) (and (= (x39 x36 x150) x103) (and (= (x39 x138 x138) x150) (= x36 (x39 x138 x126)))))))
(assert (not (and (= x150 (x39 x103 x126)) (and (= x36 (x39 x138 x103)) (and (= (x39 x126 x150) x138) (= (x39 x126 x126) x103))))))
(assert (not (and (= (x39 x150 x126) x103) (and (= (x39 x138 x150) x36) (and (= (x39 x126 x103) x138) (= (x39 x126 x126) x150))))))
(assert (not (and (and (= x36 (x39 x126 x103)) (and (= (x39 x150 x150) x103) (= (x39 x150 x138) x126))) (= x138 (x39 x103 x150)))))
(assert (not (and (and (= (x39 x36 x103) x138) (and (= x36 (x39 x126 x150)) (= x103 (x39 x126 x126)))) (= (x39 x103 x126) x150))))
(assert (not (and (and (and (= x103 (x39 x36 x36)) (= x138 (x39 x36 x126))) (= (x39 x138 x103) x150)) (= (x39 x103 x36) x126))))
(assert (not (and (= (x39 x150 x138) x103) (and (and (= (x39 x138 x138) x150) (= x126 (x39 x138 x103))) (= (x39 x126 x150) x36)))))
(assert (not (and (= x36 (x39 x138 x150)) (and (and (= (x39 x150 x36) x126) (= (x39 x150 x150) x138)) (= (x39 x126 x138) x103)))))
(assert (not (and (and (= (x39 x126 x150) x36) (and (= (x39 x103 x103) x150) (= (x39 x103 x138) x126))) (= (x39 x150 x103) x138))))
(assert (not (and (and (and (= (x39 x138 x138) x126) (= x36 (x39 x138 x103))) (= (x39 x36 x126) x150)) (= (x39 x126 x138) x103))))
(assert (not (and (and (= (x39 x150 x103) x126) (and (= (x39 x138 x36) x150) (= x103 (x39 x138 x138)))) (= x36 (x39 x103 x138)))))
(assert (not (and (= x138 (x39 x36 x126)) (and (and (= x103 (x39 x126 x138)) (= x36 (x39 x126 x126))) (= x150 (x39 x103 x36))))))
(assert (not (and (and (and (= (x39 x103 x103) x36) (= (x39 x103 x138) x150)) (= x126 (x39 x150 x36))) (= x138 (x39 x36 x103)))))
(assert (not (and (and (and (= (x39 x126 x126) x150) (= x103 (x39 x126 x36))) (= x138 (x39 x103 x150))) (= x36 (x39 x150 x126)))))
(assert (not (and (= x103 (x39 x126 x138)) (and (and (= x150 (x39 x138 x103)) (= x126 (x39 x138 x138))) (= x36 (x39 x150 x126))))))
(assert (not (and (= (x39 x36 x103) x150) (and (= (x39 x126 x36) x138) (and (= x36 (x39 x103 x103)) (= x126 (x39 x103 x150)))))))
(assert (not (and (and (= x138 (x39 x103 x150)) (and (= x103 (x39 x36 x126)) (= x150 (x39 x36 x36)))) (= (x39 x150 x36) x126))))
(assert (not (and (= x126 (x39 x103 x36)) (and (and (= (x39 x36 x126) x150) (= (x39 x36 x36) x103)) (= x138 (x39 x150 x103))))))
(assert (not (and (and (and (= x103 (x39 x36 x138)) (= (x39 x36 x36) x150)) (= (x39 x103 x150) x126)) (= (x39 x150 x36) x138))))
(assert (not (and (= x126 (x39 x36 x150)) (and (= x103 (x39 x138 x36)) (and (= x36 (x39 x150 x150)) (= (x39 x150 x126) x138))))))
(assert (not (and (and (= x103 (x39 x36 x150)) (and (= (x39 x126 x138) x36) (= (x39 x126 x126) x150))) (= x138 (x39 x150 x126)))))
(assert (not (and (and (= (x39 x103 x126) x138) (and (= (x39 x36 x36) x126) (= x103 (x39 x36 x150)))) (= x150 (x39 x126 x36)))))
(assert (not (and (and (= x150 (x39 x138 x36)) (and (= x138 (x39 x126 x103)) (= x36 (x39 x126 x126)))) (= (x39 x36 x126) x103))))
(assert (not (and (and (= (x39 x103 x36) x138) (and (= x36 (x39 x126 x126)) (= (x39 x126 x150) x103))) (= (x39 x36 x126) x150))))
(assert (not (and (and (= x103 (x39 x126 x36)) (and (= x126 (x39 x138 x150)) (= (x39 x138 x138) x36))) (= (x39 x36 x138) x150))))
(assert (not (and (and (and (= (x39 x150 x36) x138) (= (x39 x150 x150) x103)) (= x126 (x39 x138 x103))) (= x36 (x39 x103 x150)))))
(assert (not (and (and (= x103 (x39 x36 x126)) (and (= (x39 x138 x150) x36) (= x126 (x39 x138 x138)))) (= x150 (x39 x126 x138)))))
(assert (not (and (and (= (x39 x150 x36) x103) (and (= x150 (x39 x126 x138)) (= x36 (x39 x126 x126)))) (= x138 (x39 x36 x126)))))
(assert (not (and (and (and (= (x39 x138 x126) x150) (= (x39 x138 x138) x36)) (= x103 (x39 x150 x36))) (= (x39 x36 x138) x126))))
(assert (not (and (= (x39 x103 x138) x36) (and (and (= x103 (x39 x138 x138)) (= (x39 x138 x36) x126)) (= x150 (x39 x126 x103))))))
(assert (or (not (= (x39 (x39 x126 x126) x126) x126)) (or (or (or (not (= x138 (x39 (x39 x138 x138) x138))) (not (= (x39 (x39 x36 x36) x36) x36))) (not (= (x39 (x39 x150 x150) x150) x150))) (not (= (x39 (x39 x103 x103) x103) x103)))))
(assert (not (and (and (and (= x138 (x39 x36 x36)) (= (x39 x36 x126) x103)) (= x150 (x39 x103 x138))) (= x126 (x39 x138 x36)))))
(assert (not (and (= (x39 x138 x150) x36) (and (= x126 (x39 x103 x138)) (and (= (x39 x150 x150) x138) (= (x39 x150 x36) x103))))))
(assert (not (and (= x150 (x39 x103 x36)) (and (and (= (x39 x36 x150) x138) (= x103 (x39 x36 x36))) (= x126 (x39 x138 x103))))))
(assert (not (and (and (and (= x138 (x39 x150 x150)) (= (x39 x150 x103) x36)) (= (x39 x36 x138) x126)) (= x103 (x39 x138 x150)))))
(assert (let ((x106 (x39 x150 x103)) (x66 (x39 x36 x36)) (x21 (x39 x126 x126)) (x73 (x39 x103 x138)) (x139 (x39 x36 x126)) (x116 (x39 x103 x150)) (x67 (x39 x36 x138)) (x48 (x39 x150 x150)) (x72 (x39 x138 x36)) (x131 (x39 x126 x150)) (x145 (x39 x103 x103)) (x157 (x39 x138 x126)) (x7 (x39 x36 x150)) (x148 (x39 x126 x103)) (x38 (x39 x150 x36)) (x18 (x39 x150 x138)) (x17 (x39 x36 x103)) (x82 (x39 x138 x138)) (x46 (x39 x103 x126)) (x117 (x39 x126 x36)) (x120 (x39 x126 x138)) (x133 (x39 x103 x36)) (x4 (x39 x138 x150)) (x44 (x39 x138 x103)) (x50 (x39 x150 x126))) (and (and (and (not (= x148 x21)) (and (not (= x131 x21)) (and (not (= x131 x148)) (and (and (and (not (= x120 x131)) (and (not (= x21 x117)) (and (not (= x117 x148)) (and (not (= x117 x131)) (not (= x117 x120)))))) (not (= x120 x148))) (not (= x21 x120)))))) (and (and (and (and (and (not (= x46 x73)) (and (not (= x145 x73)) (and (and (not (= x133 x46)) (and (not (= x145 x133)) (and (not (= x116 x133)) (not (= x133 x73))))) (not (= x116 x73))))) (not (= x116 x145))) (not (= x116 x46))) (not (= x145 x46))) (and (and (and (and (and (and (and (not (= x17 x67)) (and (and (not (= x139 x66)) (and (not (= x66 x17)) (and (not (= x67 x66)) (not (= x66 x7))))) (not (= x67 x7)))) (not (= x139 x67))) (not (= x7 x17))) (not (= x139 x7))) (not (= x17 x139))) (and (and (not (= x157 x4)) (and (not (= x4 x44)) (and (and (and (and (and (and (not (= x72 x4)) (not (= x72 x82))) (not (= x72 x44))) (not (= x72 x157))) (not (= x4 x82))) (not (= x44 x82))) (not (= x82 x157))))) (not (= x157 x44)))) (and (not (= x50 x106)) (and (not (= x48 x50)) (and (not (= x106 x48)) (and (not (= x50 x18)) (and (not (= x18 x106)) (and (and (and (and (not (= x18 x38)) (not (= x48 x38))) (not (= x106 x38))) (not (= x50 x38))) (not (= x18 x48))))))))))) (and (and (and (not (= x50 x21)) (and (not (= x50 x46)) (and (not (= x21 x157)) (and (not (= x46 x157)) (and (and (not (= x21 x139)) (and (not (= x139 x46)) (and (not (= x139 x50)) (not (= x157 x139))))) (not (= x50 x157))))))) (not (= x21 x46))) (and (and (and (and (not (= x131 x48)) (and (not (= x116 x48)) (and (not (= x131 x4)) (and (not (= x4 x116)) (and (not (= x4 x48)) (and (not (= x131 x7)) (and (not (= x7 x116)) (and (not (= x7 x4)) (not (= x7 x48)))))))))) (not (= x116 x131))) (and (and (and (not (= x18 x120)) (and (and (not (= x82 x120)) (and (not (= x73 x82)) (and (and (and (and (not (= x67 x18)) (not (= x82 x67))) (not (= x67 x73))) (not (= x120 x67))) (not (= x82 x18))))) (not (= x73 x18)))) (not (= x120 x73))) (and (not (= x117 x133)) (and (not (= x38 x117)) (and (and (and (not (= x133 x72)) (and (not (= x72 x38)) (and (and (not (= x133 x66)) (and (not (= x66 x38)) (not (= x66 x72)))) (not (= x117 x66))))) (not (= x72 x117))) (not (= x133 x38))))))) (and (and (and (and (not (= x44 x148)) (and (not (= x44 x145)) (and (and (not (= x17 x148)) (and (not (= x17 x145)) (and (not (= x44 x17)) (not (= x17 x106))))) (not (= x106 x44))))) (not (= x145 x106))) (not (= x106 x148))) (not (= x145 x148))))))))
(assert (not (and (= x103 (x39 x138 x126)) (and (and (= x138 (x39 x126 x126)) (= x150 (x39 x126 x103))) (= (x39 x150 x138) x36)))))
(assert (not (and (= (x39 x138 x36) x150) (and (= (x39 x126 x138) x103) (and (= x138 (x39 x36 x36)) (= x126 (x39 x36 x150)))))))
(assert (not (and (= x103 (x39 x36 x138)) (and (= (x39 x150 x36) x126) (and (= (x39 x138 x103) x150) (= x36 (x39 x138 x138)))))))
(assert (not (and (= (x39 x103 x150) x138) (and (= (x39 x36 x103) x126) (and (= x103 (x39 x150 x150)) (= (x39 x150 x138) x36))))))
(assert (not (and (= (x39 x150 x138) x36) (and (and (= (x39 x138 x36) x126) (= (x39 x138 x138) x150)) (= x103 (x39 x126 x150))))))
(assert (not (and (= (x39 x103 x126) x138) (and (and (= x36 (x39 x126 x138)) (= (x39 x126 x126) x103)) (= x150 (x39 x36 x103))))))
(assert (not (and (and (= x36 (x39 x150 x138)) (and (= x150 (x39 x103 x126)) (= (x39 x103 x103) x138))) (= x126 (x39 x138 x103)))))
(assert (not (and (= (x39 x150 x138) x126) (and (and (= (x39 x138 x126) x103) (= (x39 x138 x138) x150)) (= (x39 x103 x150) x36)))))
(assert (not (and (and (= (x39 x150 x126) x36) (and (= x126 (x39 x103 x103)) (= x150 (x39 x103 x138)))) (= x138 (x39 x126 x103)))))
(assert (not (and (= (x39 x150 x103) x36) (and (and (= x150 (x39 x103 x103)) (= x126 (x39 x103 x36))) (= (x39 x126 x150) x138)))))
(assert (not (and (and (= x103 (x39 x138 x36)) (and (= x138 (x39 x126 x150)) (= x36 (x39 x126 x126)))) (= (x39 x36 x126) x150))))
(assert (not (and (and (and (= (x39 x126 x138) x150) (= x103 (x39 x126 x126))) (= x36 (x39 x150 x103))) (= (x39 x103 x126) x138))))
(assert (not (and (= (x39 x103 x36) x138) (and (and (= x103 (x39 x36 x36)) (= x126 (x39 x36 x138))) (= (x39 x126 x103) x150)))))
(assert (or (or (or (or (not (= x138 (x39 x138 (x39 x138 x138)))) (not (= x36 (x39 x36 (x39 x36 x36))))) (not (= (x39 x150 (x39 x150 x150)) x150))) (not (= (x39 x103 (x39 x103 x103)) x103))) (not (= x126 (x39 x126 (x39 x126 x126))))))
(assert (not (and (and (and (= (x39 x36 x36) x150) (= x126 (x39 x36 x138))) (= (x39 x126 x150) x103)) (= (x39 x150 x36) x138))))
(assert (or (= (x39 x126 x126) x126) (or (= (x39 x103 x103) x103) (or (= (x39 x150 x150) x150) (or (= x138 (x39 x138 x138)) (= (x39 x36 x36) x36))))))
(assert (not (and (= (x39 x126 x36) x150) (and (= x103 (x39 x138 x126)) (and (= x126 (x39 x36 x36)) (= (x39 x36 x150) x138))))))
(assert (not (and (and (and (= (x39 x150 x126) x103) (= (x39 x150 x150) x138)) (= (x39 x103 x138) x36)) (= x126 (x39 x138 x150)))))
(assert (not (and (= (x39 x150 x103) x126) (and (= (x39 x138 x150) x36) (and (= x138 (x39 x103 x126)) (= (x39 x103 x103) x150))))))
(assert (not (and (and (= x103 (x39 x138 x126)) (and (= x126 (x39 x150 x150)) (= (x39 x150 x36) x138))) (= (x39 x126 x150) x36))))
(assert (not (and (and (and (= x150 (x39 x103 x103)) (= (x39 x103 x138) x36)) (= x126 (x39 x36 x150))) (= x138 (x39 x150 x103)))))
(assert (not (and (= x103 (x39 x126 x150)) (and (and (= x126 (x39 x150 x150)) (= x36 (x39 x150 x103))) (= (x39 x36 x126) x138)))))
(assert (not (and (= (x39 x138 x103) x150) (and (= (x39 x36 x138) x126) (and (= x138 (x39 x103 x103)) (= (x39 x103 x150) x36))))))
(assert (not (and (= (x39 x150 x126) x36) (and (= (x39 x138 x150) x103) (and (= (x39 x126 x126) x150) (= x138 (x39 x126 x36)))))))
(assert (not (and (and (= (x39 x36 x138) x103) (and (= (x39 x126 x150) x36) (= x138 (x39 x126 x126)))) (= x150 (x39 x138 x126)))))
(assert (not (and (and (= (x39 x36 x150) x138) (and (= (x39 x126 x103) x36) (= x150 (x39 x126 x126)))) (= (x39 x150 x126) x103))))
(assert (not (and (= x36 (x39 x150 x138)) (and (and (= x103 (x39 x138 x36)) (= (x39 x138 x138) x150)) (= (x39 x103 x150) x126)))))
(assert (not (and (= (x39 x36 x150) x138) (and (and (= x36 (x39 x150 x150)) (= (x39 x150 x138) x103)) (= (x39 x103 x36) x126)))))
(assert (not (and (and (= (x39 x150 x126) x138) (and (= x126 (x39 x103 x103)) (= x150 (x39 x103 x36)))) (= x36 (x39 x126 x103)))))
(assert (not (and (= x150 (x39 x36 x103)) (and (and (= x36 (x39 x103 x103)) (= x138 (x39 x103 x150))) (= x126 (x39 x138 x36))))))
(assert (not (and (= x103 (x39 x138 x126)) (and (and (= x138 (x39 x126 x126)) (= (x39 x126 x103) x36)) (= x150 (x39 x36 x138))))))
(assert (not (and (and (and (= (x39 x150 x126) x36) (= (x39 x150 x150) x103)) (= (x39 x36 x103) x138)) (= x126 (x39 x103 x150)))))
(assert (not (and (= x126 (x39 x138 x103)) (and (= (x39 x36 x138) x150) (and (= x36 (x39 x103 x126)) (= (x39 x103 x103) x138))))))
(assert (not (and (= (x39 x138 x36) x150) (and (and (= x103 (x39 x36 x150)) (= x138 (x39 x36 x36))) (= (x39 x103 x138) x126)))))
(assert (not (and (= x138 (x39 x126 x150)) (and (= (x39 x36 x126) x103) (and (= x36 (x39 x150 x138)) (= (x39 x150 x150) x126))))))
(assert (and (and (and (or (= x150 (x39 (x39 x126 x150) x126)) (or (= x150 (x39 (x39 x103 x150) x103)) (or (= x150 (x39 (x39 x150 x150) x150)) (or (= (x39 (x39 x36 x150) x36) x150) (= (x39 (x39 x138 x150) x138) x150))))) (and (or (or (= x36 (x39 (x39 x103 x36) x103)) (or (= x36 (x39 (x39 x150 x36) x150)) (or (= (x39 (x39 x138 x36) x138) x36) (= x36 (x39 (x39 x36 x36) x36))))) (= x36 (x39 (x39 x126 x36) x126))) (or (or (or (or (= x138 (x39 (x39 x138 x138) x138)) (= (x39 (x39 x36 x138) x36) x138)) (= x138 (x39 (x39 x150 x138) x150))) (= (x39 (x39 x103 x138) x103) x138)) (= x138 (x39 (x39 x126 x138) x126))))) (or (or (= (x39 (x39 x103 x103) x103) x103) (or (or (= x103 (x39 (x39 x138 x103) x138)) (= x103 (x39 (x39 x36 x103) x36))) (= x103 (x39 (x39 x150 x103) x150)))) (= (x39 (x39 x126 x103) x126) x103))) (or (= (x39 (x39 x126 x126) x126) x126) (or (or (= x126 (x39 (x39 x150 x126) x150)) (or (= (x39 (x39 x36 x126) x36) x126) (= x126 (x39 (x39 x138 x126) x138)))) (= x126 (x39 (x39 x103 x126) x103))))))
(assert (not (and (and (= (x39 x126 x103) x36) (and (= x103 (x39 x138 x138)) (= x126 (x39 x138 x150)))) (= (x39 x103 x138) x150))))
(assert (not (and (and (and (= (x39 x36 x36) x103) (= x150 (x39 x36 x138))) (= (x39 x150 x103) x126)) (= x138 (x39 x103 x36)))))
(assert (not (and (= (x39 x103 x36) x150) (and (= (x39 x126 x103) x138) (and (= x126 (x39 x36 x150)) (= (x39 x36 x36) x103))))))
(assert (not (and (and (= (x39 x138 x103) x36) (and (= (x39 x150 x150) x103) (= (x39 x150 x126) x138))) (= (x39 x103 x150) x126))))
(assert (not (and (and (and (= x150 (x39 x126 x36)) (= (x39 x126 x126) x103)) (= x138 (x39 x150 x103))) (= x36 (x39 x103 x126)))))
(assert (not (and (and (= (x39 x150 x103) x36) (and (= (x39 x138 x138) x103) (= x150 (x39 x138 x126)))) (= (x39 x103 x138) x126))))
(assert (not (and (= (x39 x138 x150) x126) (and (and (= x138 (x39 x150 x150)) (= (x39 x150 x126) x36)) (= x103 (x39 x36 x138))))))
(assert (not (and (= x138 (x39 x126 x150)) (and (and (= x126 (x39 x150 x150)) (= (x39 x150 x138) x103)) (= x36 (x39 x103 x126))))))
(assert (not (and (= x36 (x39 x126 x138)) (and (and (= (x39 x138 x138) x126) (= (x39 x138 x36) x150)) (= (x39 x150 x126) x103)))))
(assert (not (and (and (= (x39 x126 x138) x36) (and (= x126 (x39 x150 x103)) (= (x39 x150 x150) x138))) (= x103 (x39 x138 x150)))))
(assert (not (and (and (= (x39 x150 x138) x103) (and (= x150 (x39 x126 x36)) (= (x39 x126 x126) x138))) (= x36 (x39 x138 x126)))))
(assert (not (and (= (x39 x150 x138) x103) (and (= (x39 x36 x150) x126) (and (= (x39 x138 x138) x150) (= (x39 x138 x103) x36))))))
(assert (not (and (= (x39 x126 x138) x150) (and (= x36 (x39 x103 x126)) (and (= (x39 x138 x138) x126) (= x103 (x39 x138 x150)))))))
(assert (not (and (and (= (x39 x103 x150) x36) (and (= (x39 x126 x138) x103) (= x150 (x39 x126 x126)))) (= x138 (x39 x150 x126)))))
(assert (not (and (and (= (x39 x150 x36) x138) (and (= x150 (x39 x126 x103)) (= (x39 x126 x126) x36))) (= (x39 x36 x126) x103))))
(assert (not (and (and (and (= (x39 x103 x36) x150) (= x138 (x39 x103 x103))) (= x126 (x39 x150 x138))) (= (x39 x138 x103) x36))))
(assert (not (and (and (and (= (x39 x103 x36) x138) (= x150 (x39 x103 x103))) (= x126 (x39 x138 x150))) (= x36 (x39 x150 x103)))))
(assert (not (and (= x138 (x39 x126 x36)) (and (= (x39 x103 x126) x150) (and (= (x39 x36 x36) x126) (= x103 (x39 x36 x138)))))))
(assert (not (and (= (x39 x126 x138) x36) (and (and (= (x39 x138 x138) x126) (= x103 (x39 x138 x36))) (= (x39 x103 x126) x150)))))
(assert (and (or (= (x39 x126 (x39 x126 x126)) x126) (or (or (or (= x138 (x39 x126 (x39 x126 x138))) (= x36 (x39 x126 (x39 x126 x36)))) (= (x39 x126 (x39 x126 x150)) x150)) (= (x39 x126 (x39 x126 x103)) x103))) (and (or (or (= (x39 x103 (x39 x103 x103)) x103) (or (= (x39 x103 (x39 x103 x150)) x150) (or (= x36 (x39 x103 (x39 x103 x36))) (= (x39 x103 (x39 x103 x138)) x138)))) (= (x39 x103 (x39 x103 x126)) x126)) (and (or (= x126 (x39 x150 (x39 x150 x126))) (or (= (x39 x150 (x39 x150 x103)) x103) (or (= x150 (x39 x150 (x39 x150 x150))) (or (= (x39 x150 (x39 x150 x138)) x138) (= x36 (x39 x150 (x39 x150 x36))))))) (and (or (= x126 (x39 x36 (x39 x36 x126))) (or (or (or (= x138 (x39 x36 (x39 x36 x138))) (= (x39 x36 (x39 x36 x36)) x36)) (= (x39 x36 (x39 x36 x150)) x150)) (= (x39 x36 (x39 x36 x103)) x103))) (or (or (or (or (= (x39 x138 (x39 x138 x36)) x36) (= x138 (x39 x138 (x39 x138 x138)))) (= (x39 x138 (x39 x138 x150)) x150)) (= (x39 x138 (x39 x138 x103)) x103)) (= x126 (x39 x138 (x39 x138 x126)))))))))
(assert (not (and (= (x39 x138 x36) x103) (and (and (= (x39 x36 x103) x150) (= (x39 x36 x36) x138)) (= x126 (x39 x150 x138))))))
(assert (not (and (= (x39 x150 x36) x103) (and (= x138 (x39 x126 x150)) (and (= x150 (x39 x36 x36)) (= x126 (x39 x36 x103)))))))
(assert (not (and (and (and (= (x39 x138 x126) x103) (= (x39 x138 x138) x36)) (= x150 (x39 x103 x36))) (= (x39 x36 x138) x126))))
(assert (not (and (= x103 (x39 x138 x36)) (and (and (= (x39 x36 x103) x126) (= (x39 x36 x36) x138)) (= x150 (x39 x126 x138))))))
(check-sat)
(exit)
